
 102   30
  10   10   10   10   10   10   10   10   10   10   10   10   10   10   10   10   10   10   10   10   10   10   10   10   10   10   10   10   10   10

   0   0   0   0   0   0   0   0   0   0   0   0   0   0   0   0   0   0   0   0   0   0   0   0   0   0   0   0   0   0   0  24 2 3 4 5 6 7 8 9 10 11 12 13 14 16 17 18 19 21 22 24 27 30 32 36 
   4   0   0   0   0   0   0   0   0   3   0   0   0   0   0   0   0   3   0   0   0   0   0   3   0   4   0   0   0   0   0  20 75 62 60 59 57 56 54 52 51 50 48 47 46 39 35 33 31 29 26 25 
   7   0   1   0   0   0   2   2   0   0   0   0   0   0   0   0   0   0   0   0   0   2   0   0   0   0   0   0   0   0   0  17 101 74 65 64 60 56 49 48 47 44 43 41 39 37 35 29 20 
   2   0   0   0   0   0   0   0   0   6   0   0   0   0   0   0   0   0   4   0   0   0   0   0   0   0   1   0   0   0   0  10 75 66 56 51 50 47 41 33 29 15 
   8   0   0   0   0   0   0   0   0   0   0   1   0   0   0   0   0   0   0   0   0   0   0   0   0   0   0   0   0   0   0  22 101 100 97 95 75 72 68 63 62 61 60 59 57 56 55 54 53 51 50 45 42 41 
   1   1   0   0   0   0   5   0   0   0   0   0   1   0   0   0   0   0   0   0   0   0   1   0   0   0   0   0   0   0   0  12 64 60 57 55 53 52 50 37 35 26 25 23 
  10   0   8   0   0   0   0   0   0   0   0   6   0   0   3   0   0   0   0   0   0   0   0   0   0   0   0   0   1   1   0  17 101 100 75 65 62 60 59 56 55 54 53 50 48 41 40 37 26 
   1   0   0   0   0   1   0   0   0   0   1   0   0   1   0   0   0  10   0   0   0   4   0   0   0   0   0   0   0   0   0  13 75 64 62 61 60 54 53 49 40 35 34 33 25 
   4   0   0   0   0   7   0   0   0   0   5   0   0   0   0   0   0   0   0   0   0   0   0   0   0   0   0   0   0   0   0  15 101 75 72 68 66 62 61 60 59 56 50 48 45 41 28 
   6   0   0   0   0   0   0   0   1   0   0   0   0   0   7   0   0   0   0   0   0   0   8   0   0   0   0   0   0   7   6  19 100 98 97 92 75 74 73 71 63 62 61 55 53 49 48 47 45 40 33 
   7   0   0   0   0   0   0   0   0   0   0   0   0   0   0   0   1   0   5   0   0   0   4   0   0   0   0   0   0   0   0  14 101 96 75 74 66 65 64 63 54 52 45 43 41 29 
   3   0   0   0   0   0   0   0   0   0   0   0   0   0   0   0   0   0   0   0   0   0   0   0   0   0   0   0   0   0   0  12 101 95 86 68 65 64 61 53 52 49 47 25 
   4   0   0   0   0   0   0   0   0   6   0   0   0   0   0   0  10   0   0   0   0   0   0   0   3   0   0   1   0   0   0  10 96 95 94 68 62 60 55 52 51 25 
   8   0   0   0   0   0   0   5   0   0   0   0   0   0   0   0   6   4   3   0   0   0   0   0   0   0   0   0   0   0   0  13 100 97 72 68 65 64 63 61 56 53 48 45 41 
   5   0   0   0   0   0   0   5   0   0   0   0   0   0   0   0   0   0   0   0   0   0   0   0   0   0   0   0   0   0   0  15 101 100 99 98 97 94 90 68 65 64 58 48 46 45 39 
   4   0   0   0   0   0   0   0   7   0   0   5   0   0   3   0   0   0   8   0   0   0   0   0   0   0   0   0   0   6   4  13 100 99 94 75 72 67 66 59 51 50 48 47 38 
   2   0   5   0   2   0   0   4   0   0   0   0   0   0   0   0   0   0   0   0   0   0   0   0   3   0   0   0   0   0   0   7 99 64 61 59 52 38 26 
   6   0   0   0   0   0   0   4   0   5   0   5   0   0   0   0   0   3   0   0   0   0   0   0   0   0   0   0   0   0   0  15 101 100 99 98 97 95 93 91 73 68 67 63 53 49 39 
   9   0   0   0   0   0   0   0   0   0   0   0   0   0   0   0   0  10   0   0   0   0   0   0   0   0   0   0   8   0   0  20 101 99 98 95 94 93 91 86 83 80 75 74 73 72 71 67 65 63 55 49 
  10   0   0   2   0   0   0   0   7   0   0   0   0   0   0   0   4   0   0   1   0   0   0   0   0   0   0   0   0   0   0  18 100 98 96 95 92 87 86 83 75 73 72 71 68 67 66 63 55 51 
   1   0   6   7   0   0   0   0   0   0   0   0   0   0   5   0   0   0   0   0   2   0   0   6   0   0   0   0   0   0   0  17 97 94 92 90 88 85 84 73 71 68 67 65 63 62 61 51 48 
   9   0   6   0   0   0   0   0   0   0   0   0   0   0   0   0   0   0   0   0   0   0   0   6   0   0   0   0   0   0   8  15 99 97 96 95 91 89 88 74 73 71 68 67 62 55 51 
   5   0   0   0   0   0   6   0   0   0   0   7   0   0   0   0   0   0   0   0   8   0   0   0   0   0   0   0   0   0   0  13 95 91 86 84 75 73 72 71 65 63 51 49 44 
   3   6   0   0   0   0   0   0   0   0   0   0   0   0   0   0   4   0   6   0   0   0   0   0   0   4   0   0   0   5   0  11 100 97 96 94 91 88 87 70 54 50 39 
   8   0   0   0   7   0   5   0   0   6   0   0   0   9   0   0   0   0   0   0   0   0   0   0   0   0   0   0   0   8   0  15 100 97 93 91 89 88 87 84 83 74 73 72 69 63 41 
   2   0   0   0   0   0   0   0   0   0   0   7   0   0   0   0   0   0   0   0   0   0   0   0   0   3   0   0   0   8   0  15 98 94 93 92 91 90 84 83 80 74 73 72 67 63 49 
   3   9   0   0   3   0   0   0   0   0   0   0   0   0   0   0   0   0   0   0   0   0   0   0   0   0   0   0   0   0   3  15 101 99 98 94 91 89 88 87 86 84 83 77 71 51 50 
   1   0   0   0   3   0   0   0   0   5   0   0   7   0   0   0   0   8   0   0   0   9   0   0   0   0   5   0   0   0   0  13 100 97 96 94 93 91 90 87 83 74 67 51 42 
   4   0   0   0   0   0   0   0   0   0   0   0   0   0   0   0   0   0   6   0   0   0   0   4   0   0   0   0   3   9   0  15 95 89 88 87 86 85 84 83 82 72 71 70 68 61 53 
   6   0   0   0   0   0   0   0   0   8   0   0   6   0   5   0   0   0   0   0   6   0   0   0   0   0   0   0   6   0   0  14 98 97 96 94 90 86 84 82 80 78 73 71 68 45 
  10   0   0   0   0   0   0   0   0   7  10   5   0   0   0   1   0   0   0   0   0   0   0   0   0   0   0   0   0   7   0  16 98 95 93 92 90 89 86 84 83 80 78 77 74 68 67 66 
   5   0   0   0   0   0   0   0   0   0   0   0   0   0  10   0   0   0   0   0   0   0   0   0   0   0   0   0   0   3   0  14 101 100 94 91 89 87 83 81 77 73 70 67 64 57 
   6   0   0   0   0   0   0   0   0   0   0   0   8   0   0   0   8   0   0   0   6   0   0   0   5   0   0   0   0   6   0  16 101 96 95 90 88 87 85 84 83 82 81 80 79 78 68 65 
   2   0   0   0   0   0   0   0   0   0   0   0   0   0   0   0   0   0   0   0   0   0   0   0   0   0   0   0   0   0   2  13 99 96 95 93 88 86 85 83 82 76 74 72 63 
   3   0   0   0   0   0   0   0   0   0   0   0   0   0   0   0   0   7   0   0   0   4   0   0   0   0   0   6   0   0   0  14 96 95 94 92 91 87 86 83 82 80 79 78 77 67 
   1   4   0   0   0   0   0   0   0   3   0   9   0   0   0   0   7   0   0  10   0   0   0   5   0   0   0   0   8   0   0   9 95 92 87 86 85 83 81 77 51 
   3   0   0   0   0   0   0   0   0   0   0   0   0   3   0   0   0   0   0   0   0   0   0   0   0   0   0   0   0   0   0   8 92 90 89 87 85 84 72 51 
  10   0   0   0   0   0   0   0   0   0   0   0   0   0   9   5   0   0   0   0   0   0   0   9   0   0   0   0   0   0   0  14 98 93 92 90 89 88 87 86 85 84 83 78 77 71 
   5   6   0   0   0   0   0   0   0   0   0   0   0   0   0   4   0   0   0   0   0   0   0   0   0  10   0   7   0   0   0  11 92 89 86 84 83 80 79 78 72 71 69 
   7   7   0   0   0   0   0   0   0   4   0   0   0   0   0   0   0   0   4   0   0   0   0   6   0   0   0   7   0   0   0   9 94 90 89 86 83 79 72 70 67 
   3   6   6   0   0   0   3   6   0   0   0   0   0   6   0   0   4   0   0   0   0   0   0   0   0   0   0   0   5   0   3  11 99 98 92 90 85 82 80 79 78 76 71 
  10   0   0   0   0   0   0   0   0   0   0   0   0   0   0   0   0   0   0   0   6   0   0   0   0   0   9   0   0   0   0   9 88 86 84 82 80 79 78 69 65 
   1   0   0  10   0   0   0   0   0   0   0   5   6   0   0   0   0   0   0   0   0   0   7   0   0   0   0   0   0   0   0   8 94 93 89 86 84 78 76 61 
   5   0   0   5   8   0   8   0   0   4   0   0   0   0   0   0   0   0   5   0   0   0   0   0   0   0   0   0   0   0   0  10 92 90 88 85 83 82 81 80 78 77 
   7   0   0   0   0   0   0   5   0   0   0   0   0   0   0   0   0   0   0   0   0   7   0   0   8   0   0   0   7   0   0   8 93 91 88 87 83 79 77 67 
   9   0   0   0   8   0   0   5   0   0   0   0   0   0   0   0   0   0   0   0   0   0   0   0   0   0   0   0   5   0  10   8 91 87 85 80 78 77 76 74 
   3   0   0   7   0   0   9   0   0   0   0   0   0   0   0   5   0   0   6   0   0   0   0   0   0   0   0   0   0   0   0   7 89 87 84 81 77 70 69 
   4   0   0   0  10   0   5   6   0   0   0   0   0   0   0   0   0   0   0   0   0   0   0   0   0   0   0   0   0   0   0   7 95 89 86 83 81 77 69 
   4   0   0   0   5   0   0   0   0   0   0   0   0   0   0   0   0   0   0   0   0   5   0   0   6   8   0   0   0   9   4   7 96 88 87 85 82 79 77 
   8   0   0   0   0   0   0   0   0   5   0   0   0   0   0   0   0   0   0   0   0   0   0   0   5   0   0   0   0   0   5   6 93 90 85 82 81 73 
   7   0   0   0   0   0   6   7   0   0   0   0   0   0   0   0   0   0   0   0   0   0   0   0   0   0   0   5   6   0   0   5 82 80 79 70 69 
   7   0   0   0   0   6   0  10   0   0   0   0   0   0   0   0   0   5   0   0   0   0  10   0   0   0   0   6   0   0   0   5 97 93 84 80 67 
   2   0   0   0   0   0   0   0   0   0   0   0   0   0   0   7   0   0   0   0   0   0   0   0   0   0   0   0   0   0   0   6 94 90 80 79 78 76 
   6   0   0   0   0   0   0   0   0   6   0   9   0   0   0   0   0   0   0   0   0   0   0   0   0   0   0   0   0   0   0   6 89 86 85 84 80 79 
   1   0   0   3   0   0   4   0   0   6   0   0   0   0   0   6  10   0   0   0   0   0   0   0   0   0   0   0   0   0   7   5 90 85 84 77 76 
   5   0   2   0   0   0   0   0   0   9   0   0   0   7  10   9   0   0   0   0   5   0   0   4   0   0   0   7   0   0   0   5 96 84 81 78 76 
   4   0   0   0   0   0   0   0   0   0   0   0   0   0   0   0   0   6   0   0   0   0   0   4   0   0   0   8   0   0   0   5 85 82 80 78 76 
   6   0   0   0   0   0   0   0   0   0   0   0   0   0   0   0   0   0   0   0   0   0   0   0   0   0   0   0   0   0   0   4 92 82 76 73 
   2   0   0   0   4   0   0   0   0   0   0   0   0   4   0   0   0   0   6   0   5   0   0   0   0   0   0   0   2   0   0   3 89 74 69 
  10   0   0   0   0   0   0   8   0   0   0   0   0   0   0   0   0   0   0   0   0   0   0   0   0   0   0   0   0   0   0   4 88 86 81 76 
   5   0   0   0   0   4   0   0   0   0   6   0   0   0   0   5   0   0   0   0   0   0   0   0   0   0   0   0   0   0   0   3 91 80 77 
   2   5   8   5   0   0   0   0   0   0   0   0   0   0   0   5   6   0   0   0   0  10   0   0   0   0   0   9   0   0   0   3 87 86 83 
   6   0   0   0   0   0   0   0   0   0   0   0   5   0   0   6   0   2   0   0  10   0   0   0   0   0   0   0   0   5   0   2 79 70 
   1   0   0   0   0   0   0   7   0   0   0   5   0   0   0   0   0   0   0   0   0   0   0   0   0   0   0   0   0   0   0   2 79 69 
   6   0   9   0   7   0   0   0   0   0   0   0   0   0   0   6   7   0   0   0   0   0   0   3   0   0   0   0   8   0   6   2 89 77 
   1   0   0   0   5   0   0   0   0   0   0   0   8   0   3   0   0   0   0   0   5   0   0   0   0   0   0   0   0   0   0   2 97 88 
   7   8   0   6   0   0   7   0   8   0   0   0   0   0   0   0   0   0   0   0   0   0   0   0   0   0   9   0   0   0   0   1 69 
   1   0   0   0   0   0   7   0   0   0   0   8   0   0   0   0   0   5   0   0   0   0   0   0   4   0   0   0   0   0   0   1 69 
  10   0   0   0   0   0   0   0   0   0   0   0   0   0   0   0   0   0   0   0   0   0   0   0   0   0   0   0   0   0   0   1 76 
   7   0   0   0   0   0   0   0   0   0   0   0   0   0   0   0   3  10   0   0   3   0   4   0   0   0   0   4   0   0   0   1 78 
   8   0   0   0   0   0   0   0   8   0   0   0   0   0   0   8   0   0   0   4   0   0   0   0   0   0   0   0   7   0   0   1 81 
   9   0   0   0   0   8   4   0   0   0   0   0   0   0   0   7   0   0   0   0   7   0   0   0   0   0   0   0   9   0   0   1 77 
   5   5   0   0   0   0   0   0   0   0   6   0   0   0   7   0   0   0   8   0   0   0   0   0   0   0   9   0   0   0   0   1 79 
   2   0   0   0   0   8   0   0   0   0   0   0   0   9   4   0   0   4   7   0   9   0   0   0   0   0   0   0   0   0   0   1 81 
   9   0   0   0   0   6   0   0   0   0   0   0   0   0   0   0   0   0   0   0   0   0   0   0   0   0   4   0   0   0   0   1 88 
   7   0   0   0   0   0   0   0   0   0   0   7   0   0   0   0   0   0   0   0   0   0   0   0   0   0   8   0   0   0   0   1 102
   7   7   0   0   0   0   0   0   0   0   0   0   0   0   0   0   0   0   0   6   0   6   0   7   0   0   0   0   0   0   0   1 102
   8   0   0   0   0   6   0   0   0   0   0   0   2   0   0   0   9   7   0   8   0   0   7   0   0   0   0   0   7   0   0   1 102
   9   0   0   0   0   0   0   0   6   0   0   0   6   0   0   0   0   0   0   0   0   0   0   0   0   0   0   0   0   0   0   1 102
   3   0   0   0   0   0   0   0   0   0   0   0   0   0   0   0   0   0   0   0   0   0   0   0   0   0   0   0   0   3   0   1 102
   7   6   0   4   0   0  10   7   0   0   0   0   0   0   0   0   5   0   0   0   0   0   7   0   0   0   0   0   0   0   0   1 102
   1   0   0   0   0   0   0   0   0   0   0   0   0   0   0   0   6   0   0   0   0   0   0   0   0   0   0   0   0   0   0   1 102
   9   0   0   8   0   0   0   0   7   0   0   0   0   0   0   0   0   0   0   3   0   0   0   0   0   0   0   6   0   0   0   1 102
   3   0   0   7   0   0   0   6   0   0   0   0   8   0   0   0   8   0   5   0   0   0   0   0   0  10   0   0   0   0   0   1 102
   4   0   0   0   0   0   0   6   0   9   0   0   0   0   0   0   0   0   0   0   0   7   0   0  10   3   0   0   0   0   0   1 102
  10   0   0   0   0   0   0   0   4   0   0   8   0   0   0   0   0   0   0   0   0   0   0  10   0   0   0   0   0   0   0   1 102
   2   0   0   0   0   4   0   0   0   0   8   0   0  10   0   0   4   0   0   0   0   0   0   0   0   0   0   0   0   0   0   1 102
   4   0   0   7   0   0   0   0   0   0   0   8   9   0   0   0   0  10   7   0   0   0   0   0   0   0   0   0   2   0   0   1 102
   3   0   0   0   8   0   0   6   0   0   0   0   0   0   0   0   6   0   0   0   0   0   0   0   0   0   0   0   0   0   0   1 102
   4   0   0   0   8   0   0   6   0   0   0   0   0   0   0   0   0   0   0   0   0   6   0   9   0   6   4   0   0   0   6   1 102
   7   0   0   0   0   0   0   0   0   6   0   0   0   0   0   0   0   6   0   0   0   0   0   0   0   0   0   0   0   0   0   1 102
   1   0   0   0   0   0  10   0   0   0   0   0   0   0   0   0   0   0   0   0   4   0   0   0   0   0   0   0   0   0   0   1 102
   2   8   7   0   0   0   5   0   6   0   0   0   0   0   0   0   0   0   0   0   8   0   0   0   0   0   0   0   0   0   0   1 102
   8   0   0   0   0   0   0   0   0   6   0   2   0   0   0   0   6   0   0   0   0   0   0  10   0   0   0   0   0   0   0   1 102
   3   0   0   0   0   8   0   0   0   0   0   0   0   0   0   0   0   0   0   0   0   0   0   0  10   0   0   0   9   5   0   1 102
   7   0   0   0   0   0   0   0   0  10   0   0   0   0   0   0   0   0   0  10   0   0   0   0   6   0   0   0   0   0   0   1 102
   7   0   0   7   0   8   0  10   0   0   0   0   0   0   0   8   0   0   0   0   0   0   0   0   0   0   4   0   0   0   0   1 102
   6   0   0   0   0   0   0   0   0   0   0   0   0   0   0   0   0   0   0   0   0   0   0   0   0   0   4   0   0   0  10   1 102
   4   0   0   0   0   0   0   5   0   0   0   0   0   5   0   0   0   5   0   0   0   6   0   0   0   0   0   0   0   0   0   1 102
   3   0   8   0   0   0   0   0   0   0   0   5   0   0   0   8   0   0  10   0   0   0   6   0   0   0   9   0   0   0  10   1 102
   5   0   0   0   6   0   0   0   0   0   6   0   0   0   0   0   0   3   0   0   0   0   0   4   0   0   0   0   9   8   0   1 102
   0   0   0   0   0   0   0   0   0   0   0   0   0   0   0   0   0   0   0   0   0   0   0   0   0   0   0   0   0   0   0   0 
